50 33 81 65 32 90 63 64 11 62 88 7 18 83 60 5 99 6 87 13 
53 40 2 41 22 75 74 72 73 21 58 
26 54 39 67 23 56 4 55 25 24 80 12 
52 82 48 36 46 45 8 47 49 19 10 70 31 
27 69 30 1 76 3 79 78 9 51 20 66 71 35 34 29 68 77 28 
94 95 92 97 42 57 15 43 14 44 38 86 16 84 17 61 85 91 100 37 98 93 59 96 89 
